c ind 1 17 18 19 20 21 22 23 24 25 26 27 28 29 30 31 32 33 34 35 36 37 38 39 40 41 0
p cnf 81 142
-5 -7 0
6 -7 0
5 -6 7 0
-5 -9 0
6 -9 0
8 -9 0
5 -6 -8 9 0
-5 -11 0
6 -11 0
8 -11 0
10 -11 0
5 -6 -8 -10 11 0
-5 -13 0
6 -13 0
8 -13 0
10 -13 0
12 -13 0
5 -6 -8 -10 -12 13 0
-5 -15 0
6 -15 0
8 -15 0
10 -15 0
12 -15 0
14 -15 0
5 -6 -8 -10 -12 -14 15 0
16 0
-1 17 -42 0
1 -17 -42 0
-1 -17 42 0
1 17 42 0
-42 0
1 -44 0
-23 -44 0
-1 23 44 0
-2 -44 -45 0
2 44 -45 0
-2 44 45 0
2 -44 45 0
-45 0
2 -47 0
-29 -47 0
-2 29 47 0
-3 -47 -48 0
3 47 -48 0
-3 47 48 0
3 -47 48 0
-48 0
3 -50 0
-35 -50 0
-3 35 50 0
-4 -50 -51 0
4 50 -51 0
-4 50 51 0
4 -50 51 0
-51 0
4 -53 0
-41 -53 0
-4 41 53 0
-5 -53 -54 0
5 53 -54 0
-5 53 54 0
5 -53 54 0
-54 0
-29 55 0
29 -55 0
-29 -56 0
29 -56 0
29 57 0
-56 57 0
-29 56 -57 0
-6 -57 -58 0
6 57 -58 0
-6 57 58 0
6 -57 58 0
-58 0
-17 59 0
17 -59 0
-17 -60 0
17 -60 0
17 61 0
-60 61 0
-17 60 -61 0
-8 -61 -62 0
8 61 -62 0
-8 61 62 0
8 -61 62 0
-62 0
-23 63 0
23 -63 0
-23 -64 0
23 -64 0
23 65 0
-64 65 0
-23 64 -65 0
-10 -65 -66 0
10 65 -66 0
-10 65 66 0
10 -65 66 0
-66 0
-35 67 0
35 -67 0
-35 -68 0
35 -68 0
35 69 0
-68 69 0
-35 68 -69 0
-12 -69 -70 0
12 69 -70 0
-12 69 70 0
12 -69 70 0
-70 0
-41 71 0
41 -71 0
-41 -72 0
41 -72 0
41 73 0
-72 73 0
-41 72 -73 0
-14 -73 -74 0
14 73 -74 0
-14 73 74 0
14 -73 74 0
-74 0
-5 0
6 0
8 0
10 0
12 0
14 0
-75 -77 -79 0
75 77 -79 0
-75 77 79 0
75 -77 79 0
-76 -78 -80 0
76 78 -80 0
-76 78 80 0
76 -78 80 0
-79 -81 0
-80 -81 0
79 80 81 0
-16 81 0
16 -81 0
c __CPROVER_malloc_is_new_array#1 FALSE
c check::$tmp::tmp_if_expr$1!0@1#1 43
c goto_symex::\guard#1 1
c check::$tmp::tmp_if_expr$1!0@1#2 -23
c check::$tmp::tmp_if_expr$1!0@1#3 43
c check::$tmp::tmp_if_expr$1!0@1#4 FALSE
c check::$tmp::tmp_if_expr$1!0@1#5 2
c check::$tmp::tmp_if_expr$2!0@1#1 46
c check::$tmp::tmp_if_expr$2!0@1#2 -29
c check::$tmp::tmp_if_expr$2!0@1#3 46
c check::$tmp::tmp_if_expr$2!0@1#4 FALSE
c check::$tmp::tmp_if_expr$2!0@1#5 3
c check::$tmp::tmp_if_expr$3!0@1#1 49
c check::$tmp::tmp_if_expr$3!0@1#2 -35
c check::$tmp::tmp_if_expr$3!0@1#3 49
c check::$tmp::tmp_if_expr$3!0@1#4 FALSE
c check::$tmp::tmp_if_expr$3!0@1#5 4
c check::$tmp::tmp_if_expr$4!0@1#1 52
c check::$tmp::tmp_if_expr$4!0@1#2 -41
c check::$tmp::tmp_if_expr$4!0@1#3 52
c check::$tmp::tmp_if_expr$4!0@1#4 FALSE
c check::$tmp::tmp_if_expr$4!0@1#5 5
c goto_symex::\guard#2 6
c goto_symex::\guard#3 8
c goto_symex::\guard#4 10
c goto_symex::\guard#5 12
c goto_symex::\guard#6 14
c __CPROVER_thread_id!0#1 FALSE FALSE FALSE FALSE FALSE FALSE FALSE FALSE FALSE FALSE FALSE FALSE FALSE FALSE FALSE FALSE FALSE FALSE FALSE FALSE FALSE FALSE FALSE FALSE FALSE FALSE FALSE FALSE FALSE FALSE FALSE FALSE FALSE FALSE FALSE FALSE FALSE FALSE FALSE FALSE FALSE FALSE FALSE FALSE FALSE FALSE FALSE FALSE FALSE FALSE FALSE FALSE FALSE FALSE FALSE FALSE FALSE FALSE FALSE FALSE FALSE FALSE FALSE FALSE
c __CPROVER_rounding_mode!0#1 FALSE FALSE FALSE FALSE FALSE FALSE FALSE FALSE FALSE FALSE FALSE FALSE FALSE FALSE FALSE FALSE FALSE FALSE FALSE FALSE FALSE FALSE FALSE FALSE FALSE FALSE FALSE FALSE FALSE FALSE FALSE FALSE
c check::1::x!0@1#1 17 18 19 20 21 22 23 24 25 26 27 28 29 30 31 32 33 34 35 36 37 38 39 40 41
c __CPROVER_pipe_count#1 FALSE FALSE FALSE FALSE FALSE FALSE FALSE FALSE FALSE FALSE FALSE FALSE FALSE FALSE FALSE FALSE FALSE FALSE FALSE FALSE FALSE FALSE FALSE FALSE FALSE FALSE FALSE FALSE FALSE FALSE FALSE FALSE
c __CPROVER_deallocated#1 FALSE FALSE FALSE FALSE FALSE FALSE FALSE FALSE FALSE FALSE FALSE FALSE FALSE FALSE FALSE FALSE FALSE FALSE FALSE FALSE FALSE FALSE FALSE FALSE FALSE FALSE FALSE FALSE FALSE FALSE FALSE FALSE FALSE FALSE FALSE FALSE FALSE FALSE FALSE FALSE FALSE FALSE FALSE FALSE FALSE FALSE FALSE FALSE FALSE FALSE FALSE FALSE FALSE FALSE FALSE FALSE FALSE FALSE FALSE FALSE FALSE FALSE FALSE FALSE
c __CPROVER_dead_object#1 FALSE FALSE FALSE FALSE FALSE FALSE FALSE FALSE FALSE FALSE FALSE FALSE FALSE FALSE FALSE FALSE FALSE FALSE FALSE FALSE FALSE FALSE FALSE FALSE FALSE FALSE FALSE FALSE FALSE FALSE FALSE FALSE FALSE FALSE FALSE FALSE FALSE FALSE FALSE FALSE FALSE FALSE FALSE FALSE FALSE FALSE FALSE FALSE FALSE FALSE FALSE FALSE FALSE FALSE FALSE FALSE FALSE FALSE FALSE FALSE FALSE FALSE FALSE FALSE
c __CPROVER_next_thread_id#1 FALSE FALSE FALSE FALSE FALSE FALSE FALSE FALSE FALSE FALSE FALSE FALSE FALSE FALSE FALSE FALSE FALSE FALSE FALSE FALSE FALSE FALSE FALSE FALSE FALSE FALSE FALSE FALSE FALSE FALSE FALSE FALSE FALSE FALSE FALSE FALSE FALSE FALSE FALSE FALSE FALSE FALSE FALSE FALSE FALSE FALSE FALSE FALSE FALSE FALSE FALSE FALSE FALSE FALSE FALSE FALSE FALSE FALSE FALSE FALSE FALSE FALSE FALSE FALSE
c __CPROVER_malloc_object#1 FALSE FALSE FALSE FALSE FALSE FALSE FALSE FALSE FALSE FALSE FALSE FALSE FALSE FALSE FALSE FALSE FALSE FALSE FALSE FALSE FALSE FALSE FALSE FALSE FALSE FALSE FALSE FALSE FALSE FALSE FALSE FALSE FALSE FALSE FALSE FALSE FALSE FALSE FALSE FALSE FALSE FALSE FALSE FALSE FALSE FALSE FALSE FALSE FALSE FALSE FALSE FALSE FALSE FALSE FALSE FALSE FALSE FALSE FALSE FALSE FALSE FALSE FALSE FALSE
c __CPROVER_malloc_size#1 FALSE FALSE FALSE FALSE FALSE FALSE FALSE FALSE FALSE FALSE FALSE FALSE FALSE FALSE FALSE FALSE FALSE FALSE FALSE FALSE FALSE FALSE FALSE FALSE FALSE FALSE FALSE FALSE FALSE FALSE FALSE FALSE FALSE FALSE FALSE FALSE FALSE FALSE FALSE FALSE FALSE FALSE FALSE FALSE FALSE FALSE FALSE FALSE FALSE FALSE FALSE FALSE FALSE FALSE FALSE FALSE FALSE FALSE FALSE FALSE FALSE FALSE FALSE FALSE
c __CPROVER_memory_leak#1 FALSE FALSE FALSE FALSE FALSE FALSE FALSE FALSE FALSE FALSE FALSE FALSE FALSE FALSE FALSE FALSE FALSE FALSE FALSE FALSE FALSE FALSE FALSE FALSE FALSE FALSE FALSE FALSE FALSE FALSE FALSE FALSE FALSE FALSE FALSE FALSE FALSE FALSE FALSE FALSE FALSE FALSE FALSE FALSE FALSE FALSE FALSE FALSE FALSE FALSE FALSE FALSE FALSE FALSE FALSE FALSE FALSE FALSE FALSE FALSE FALSE FALSE FALSE FALSE
